12
283
21
0
223
467
46
20
46
45
350
117
73
26
49
22
1140
27
33
1957
19
0
58
36
333
18
156
20
54
16
31
122
41
21
33
17
44
173
23
0
15
50
30
55
306
27
17
13
53
15
38
87
69
96
108
103
0
144
28
70
46
0
119
65
139
666
23
0
0
0
93
39
237
0
18
154
26
59
18
0
49
75
138
86
178
84
44
55
0
48
48
35
0
15
0
26
22
64
56
0
